Route #1: 118 91 51 16 14 60 95
Route #2: 59 96 18 73 39 2 9 47
Route #3: 58 34 41 105 25 113 89 116 129
Route #4: 108 6 97 5 121 7 68 30 8 44 67 20 126 55 22 27 4 70 107 84 81 15 63 13
Route #5: 100 122 11 114 131 101 52 40
Route #6: 90 66 53 77 23 98 75 28 65 42 93 94 102 88 37 24
Route #7: 127 48 64 117 49 69 1 92 31
Route #8: 112 79 43 36 111 120 71 61 29
Route #9: 119 57 104 99 46 21 45 106 85
Route #10: 128 125 115 80 130 19 17 109 132
Route #11: 76 82 133 12 124 33 86 72 3
Route #12: 83 38 50 35 26 74 87 78
Route #13: 56 123 110 54 32 62 10 103
Cost 10916
